50
150
100
99
96
94
92
91
91
89
85
84
81
81
79
79
78
77
76
75
74
73
67
65
64
63
63
59
57
57
54
52
51
49
49
47
46
46
44
44
43
43
40
38
34
33
32
31
30
29
25
22
